Minimize
	value: tt

Subject to
tt + 1000 s_1_1 > 0.0
tt - t_1_1 - 1001.110473 s_1_1  + 0.555236 s_1_8  + 0.555236 s_1_7  > -992.073800
tt + 1000 s_2_1 > 0.0
tt - t_2_1 - 1000.943601 s_2_1  + 0.471800 s_2_8  + 0.471800 s_2_7  > -992.854366
tt + 1000 s_1_2 > 0.0
tt - t_1_2 - 1000.555236 s_1_2  + 0.555236 s_1_7  > -992.180800
tt + 1000 s_2_2 > 0.0
tt - t_2_2 - 1000.471800 s_2_2  + 0.471800 s_2_7  > -992.914539
tt + 1000 s_1_3 > 0.0
tt - t_1_3 - 1001.110473 s_1_3  + 0.555236 s_1_8  + 0.555236 s_1_7  > -999.499578
tt + 1000 s_2_3 > 0.0
tt - t_2_3 - 1000.943601 s_2_3  + 0.471800 s_2_8  + 0.471800 s_2_7  > -998.334056
tt + 1000 s_1_4 > 0.0
tt - t_1_4 - 1000.555236 s_1_4  + 0.555236 s_1_7  > -999.178667
tt + 1000 s_2_4 > 0.0
tt - t_2_4 - 1000.471800 s_2_4  + 0.471800 s_2_7  > -997.417544
tt + 1000 s_1_5 > 0.0
tt - t_1_5 - 1000.555236 s_1_5  + 0.555236 s_1_8  > -996.262711
tt + 1000 s_2_5 > 0.0
tt - t_2_5 - 1000.471800 s_2_5  + 0.471800 s_2_8  > -996.243252
tt + 1000 s_1_6 > 0.0
tt - t_1_6 - 1003.331418 s_1_6  + 0.555236 s_1_2  + 0.555236 s_1_3  + 0.555236 s_1_7  + 0.555236 s_1_1  + 0.555236 s_1_5  + 0.555236 s_1_4  > -999.675700
tt + 1000 s_2_6 > 0.0
tt - t_2_6 - 1002.830803 s_2_6  + 0.471800 s_2_2  + 0.471800 s_2_3  + 0.471800 s_2_7  + 0.471800 s_2_1  + 0.471800 s_2_5  + 0.471800 s_2_4  > -999.364250
tt + 1000 s_1_7 > 0.0
tt - t_1_7 - 1000.000000 s_1_7  > -992.014100
tt + 1000 s_2_7 > 0.0
tt - t_2_7 - 1000.000000 s_2_7  > -995.372336
tt + 1000 s_1_8 > 0.0
tt - t_1_8 - 1000.000000 s_1_8  > -988.283100
tt + 1000 s_2_8 > 0.0
tt - t_2_8 - 1000.000000 s_2_8  > -994.087325
s_1_1 + s_2_1 = 1
s_1_2 + s_2_2 = 1
s_1_3 + s_2_3 = 1
s_1_4 + s_2_4 = 1
s_1_5 + s_2_5 = 1
s_1_6 + s_2_6 = 1
s_1_7 + s_2_7 = 1
s_1_8 + s_2_8 = 1
s_1_1 + s_1_2 + 1000 r_1_1_2 >= 2
- s_1_1 - s_1_2 - 1000 r_1_1_2 >= -1001
t_1_1 - t_1_2 - 1000.000000 u_1_1_2 - 0.555236 s_1_2  + 0.555236 s_1_7  + 2000.000000 r_1_1_2 > -992.180800
s_2_1 + s_2_2 + 1000 r_2_1_2 >= 2
- s_2_1 - s_2_2 - 1000 r_2_1_2 >= -1001
t_2_1 - t_2_2 - 1000.000000 u_2_1_2 - 0.471800 s_2_2  + 0.471800 s_2_7  + 2000.000000 r_2_1_2 > -992.914539
s_1_1 + s_1_3 + 1000 r_1_1_3 >= 2
- s_1_1 - s_1_3 - 1000 r_1_1_3 >= -1001
t_1_1 - t_1_3 - 1000.000000 u_1_1_3 - 1.110473 s_1_3  + 0.555236 s_1_8  + 0.555236 s_1_7  + 2000.000000 r_1_1_3 > -999.499578
s_2_1 + s_2_3 + 1000 r_2_1_3 >= 2
- s_2_1 - s_2_3 - 1000 r_2_1_3 >= -1001
t_2_1 - t_2_3 - 1000.000000 u_2_1_3 - 0.943601 s_2_3  + 0.471800 s_2_8  + 0.471800 s_2_7  + 2000.000000 r_2_1_3 > -998.334056
s_1_1 + s_1_4 + 1000 r_1_1_4 >= 2
- s_1_1 - s_1_4 - 1000 r_1_1_4 >= -1001
t_1_1 - t_1_4 - 1000.000000 u_1_1_4 - 0.555236 s_1_4  + 0.555236 s_1_7  + 2000.000000 r_1_1_4 > -999.178667
s_2_1 + s_2_4 + 1000 r_2_1_4 >= 2
- s_2_1 - s_2_4 - 1000 r_2_1_4 >= -1001
t_2_1 - t_2_4 - 1000.000000 u_2_1_4 - 0.471800 s_2_4  + 0.471800 s_2_7  + 2000.000000 r_2_1_4 > -997.417544
s_1_1 + s_1_5 + 1000 r_1_1_5 >= 2
- s_1_1 - s_1_5 - 1000 r_1_1_5 >= -1001
t_1_1 - t_1_5 - 1000.000000 u_1_1_5 - 0.555236 s_1_5  + 0.555236 s_1_8  + 2000.000000 r_1_1_5 > -996.262711
s_2_1 + s_2_5 + 1000 r_2_1_5 >= 2
- s_2_1 - s_2_5 - 1000 r_2_1_5 >= -1001
t_2_1 - t_2_5 - 1000.000000 u_2_1_5 - 0.471800 s_2_5  + 0.471800 s_2_8  + 2000.000000 r_2_1_5 > -996.243252
t_1_6 - t_1_1 - 1001.110473 s_1_1  + 0.555236 s_1_8  + 0.555236 s_1_7  > -992.073800
t_1_6 - t_2_1 - 1000.943601 s_2_1  + 0.471800 s_2_8  + 0.471800 s_2_7  > -992.854366
t_2_6 - t_1_1 - 1001.110473 s_1_1  + 0.555236 s_1_8  + 0.555236 s_1_7  > -992.073800
t_2_6 - t_2_1 - 1000.943601 s_2_1  + 0.471800 s_2_8  + 0.471800 s_2_7  > -992.854366
t_1_1 - t_1_7 - 1000.000000 s_1_7  > -992.014100
t_1_1 - t_2_7 - 1000.000000 s_2_7  > -995.372336
t_2_1 - t_1_7 - 1000.000000 s_1_7  > -992.014100
t_2_1 - t_2_7 - 1000.000000 s_2_7  > -995.372336
t_1_1 - t_1_8 - 1000.000000 s_1_8  > -988.283100
t_1_1 - t_2_8 - 1000.000000 s_2_8  > -994.087325
t_2_1 - t_1_8 - 1000.000000 s_1_8  > -988.283100
t_2_1 - t_2_8 - 1000.000000 s_2_8  > -994.087325
s_1_2 + s_1_1 + 1000 r_1_1_2 >= 2
- s_1_2 - s_1_1 - 1000 r_1_1_2 >= -1001
t_1_2 - t_1_1 + 1000.000000 u_1_1_2 - 1.110473 s_1_1  + 0.555236 s_1_8  + 0.555236 s_1_7  + 2000.000000 r_1_1_2 > 7.926200
s_2_2 + s_2_1 + 1000 r_2_1_2 >= 2
- s_2_2 - s_2_1 - 1000 r_2_1_2 >= -1001
t_2_2 - t_2_1 + 1000.000000 u_2_1_2 - 0.943601 s_2_1  + 0.471800 s_2_8  + 0.471800 s_2_7  + 2000.000000 r_2_1_2 > 7.145634
s_1_2 + s_1_3 + 1000 r_1_2_3 >= 2
- s_1_2 - s_1_3 - 1000 r_1_2_3 >= -1001
t_1_2 - t_1_3 - 1000.000000 u_1_2_3 - 1.110473 s_1_3  + 0.555236 s_1_8  + 0.555236 s_1_7  + 2000.000000 r_1_2_3 > -999.499578
s_2_2 + s_2_3 + 1000 r_2_2_3 >= 2
- s_2_2 - s_2_3 - 1000 r_2_2_3 >= -1001
t_2_2 - t_2_3 - 1000.000000 u_2_2_3 - 0.943601 s_2_3  + 0.471800 s_2_8  + 0.471800 s_2_7  + 2000.000000 r_2_2_3 > -998.334056
s_1_2 + s_1_4 + 1000 r_1_2_4 >= 2
- s_1_2 - s_1_4 - 1000 r_1_2_4 >= -1001
t_1_2 - t_1_4 - 1000.000000 u_1_2_4 - 0.555236 s_1_4  + 0.555236 s_1_7  + 2000.000000 r_1_2_4 > -999.178667
s_2_2 + s_2_4 + 1000 r_2_2_4 >= 2
- s_2_2 - s_2_4 - 1000 r_2_2_4 >= -1001
t_2_2 - t_2_4 - 1000.000000 u_2_2_4 - 0.471800 s_2_4  + 0.471800 s_2_7  + 2000.000000 r_2_2_4 > -997.417544
s_1_2 + s_1_5 + 1000 r_1_2_5 >= 2
- s_1_2 - s_1_5 - 1000 r_1_2_5 >= -1001
t_1_2 - t_1_5 - 1000.000000 u_1_2_5 - 0.555236 s_1_5  + 0.555236 s_1_8  + 2000.000000 r_1_2_5 > -996.262711
s_2_2 + s_2_5 + 1000 r_2_2_5 >= 2
- s_2_2 - s_2_5 - 1000 r_2_2_5 >= -1001
t_2_2 - t_2_5 - 1000.000000 u_2_2_5 - 0.471800 s_2_5  + 0.471800 s_2_8  + 2000.000000 r_2_2_5 > -996.243252
t_1_6 - t_1_2 - 1000.555236 s_1_2  + 0.555236 s_1_7  > -992.180800
t_1_6 - t_2_2 - 1000.471800 s_2_2  + 0.471800 s_2_7  > -992.914539
t_2_6 - t_1_2 - 1000.555236 s_1_2  + 0.555236 s_1_7  > -992.180800
t_2_6 - t_2_2 - 1000.471800 s_2_2  + 0.471800 s_2_7  > -992.914539
t_1_2 - t_1_7 - 1000.000000 s_1_7  > -992.014100
t_1_2 - t_2_7 - 1000.000000 s_2_7  > -995.372336
t_2_2 - t_1_7 - 1000.000000 s_1_7  > -992.014100
t_2_2 - t_2_7 - 1000.000000 s_2_7  > -995.372336
s_1_2 + s_1_8 + 1000 r_1_2_8 >= 2
- s_1_2 - s_1_8 - 1000 r_1_2_8 >= -1001
t_1_2 - t_1_8 - 1000.000000 u_1_2_8 - 0.000000 s_1_8  + 2000.000000 r_1_2_8 > -988.283100
s_2_2 + s_2_8 + 1000 r_2_2_8 >= 2
- s_2_2 - s_2_8 - 1000 r_2_2_8 >= -1001
t_2_2 - t_2_8 - 1000.000000 u_2_2_8 - 0.000000 s_2_8  + 2000.000000 r_2_2_8 > -994.087325
s_1_3 + s_1_1 + 1000 r_1_1_3 >= 2
- s_1_3 - s_1_1 - 1000 r_1_1_3 >= -1001
t_1_3 - t_1_1 + 1000.000000 u_1_1_3 - 1.110473 s_1_1  + 0.555236 s_1_8  + 0.555236 s_1_7  + 2000.000000 r_1_1_3 > 7.926200
s_2_3 + s_2_1 + 1000 r_2_1_3 >= 2
- s_2_3 - s_2_1 - 1000 r_2_1_3 >= -1001
t_2_3 - t_2_1 + 1000.000000 u_2_1_3 - 0.943601 s_2_1  + 0.471800 s_2_8  + 0.471800 s_2_7  + 2000.000000 r_2_1_3 > 7.145634
s_1_3 + s_1_2 + 1000 r_1_2_3 >= 2
- s_1_3 - s_1_2 - 1000 r_1_2_3 >= -1001
t_1_3 - t_1_2 + 1000.000000 u_1_2_3 - 0.555236 s_1_2  + 0.555236 s_1_7  + 2000.000000 r_1_2_3 > 7.819200
s_2_3 + s_2_2 + 1000 r_2_2_3 >= 2
- s_2_3 - s_2_2 - 1000 r_2_2_3 >= -1001
t_2_3 - t_2_2 + 1000.000000 u_2_2_3 - 0.471800 s_2_2  + 0.471800 s_2_7  + 2000.000000 r_2_2_3 > 7.085461
s_1_3 + s_1_4 + 1000 r_1_3_4 >= 2
- s_1_3 - s_1_4 - 1000 r_1_3_4 >= -1001
t_1_3 - t_1_4 - 1000.000000 u_1_3_4 - 0.555236 s_1_4  + 0.555236 s_1_7  + 2000.000000 r_1_3_4 > -999.178667
s_2_3 + s_2_4 + 1000 r_2_3_4 >= 2
- s_2_3 - s_2_4 - 1000 r_2_3_4 >= -1001
t_2_3 - t_2_4 - 1000.000000 u_2_3_4 - 0.471800 s_2_4  + 0.471800 s_2_7  + 2000.000000 r_2_3_4 > -997.417544
s_1_3 + s_1_5 + 1000 r_1_3_5 >= 2
- s_1_3 - s_1_5 - 1000 r_1_3_5 >= -1001
t_1_3 - t_1_5 - 1000.000000 u_1_3_5 - 0.555236 s_1_5  + 0.555236 s_1_8  + 2000.000000 r_1_3_5 > -996.262711
s_2_3 + s_2_5 + 1000 r_2_3_5 >= 2
- s_2_3 - s_2_5 - 1000 r_2_3_5 >= -1001
t_2_3 - t_2_5 - 1000.000000 u_2_3_5 - 0.471800 s_2_5  + 0.471800 s_2_8  + 2000.000000 r_2_3_5 > -996.243252
t_1_6 - t_1_3 - 1001.110473 s_1_3  + 0.555236 s_1_8  + 0.555236 s_1_7  > -999.499578
t_1_6 - t_2_3 - 1000.943601 s_2_3  + 0.471800 s_2_8  + 0.471800 s_2_7  > -998.334056
t_2_6 - t_1_3 - 1001.110473 s_1_3  + 0.555236 s_1_8  + 0.555236 s_1_7  > -999.499578
t_2_6 - t_2_3 - 1000.943601 s_2_3  + 0.471800 s_2_8  + 0.471800 s_2_7  > -998.334056
t_1_3 - t_1_7 - 1000.000000 s_1_7  > -992.014100
t_1_3 - t_2_7 - 1000.000000 s_2_7  > -995.372336
t_2_3 - t_1_7 - 1000.000000 s_1_7  > -992.014100
t_2_3 - t_2_7 - 1000.000000 s_2_7  > -995.372336
t_1_3 - t_1_8 - 1000.000000 s_1_8  > -988.283100
t_1_3 - t_2_8 - 1000.000000 s_2_8  > -994.087325
t_2_3 - t_1_8 - 1000.000000 s_1_8  > -988.283100
t_2_3 - t_2_8 - 1000.000000 s_2_8  > -994.087325
s_1_4 + s_1_1 + 1000 r_1_1_4 >= 2
- s_1_4 - s_1_1 - 1000 r_1_1_4 >= -1001
t_1_4 - t_1_1 + 1000.000000 u_1_1_4 - 1.110473 s_1_1  + 0.555236 s_1_8  + 0.555236 s_1_7  + 2000.000000 r_1_1_4 > 7.926200
s_2_4 + s_2_1 + 1000 r_2_1_4 >= 2
- s_2_4 - s_2_1 - 1000 r_2_1_4 >= -1001
t_2_4 - t_2_1 + 1000.000000 u_2_1_4 - 0.943601 s_2_1  + 0.471800 s_2_8  + 0.471800 s_2_7  + 2000.000000 r_2_1_4 > 7.145634
s_1_4 + s_1_2 + 1000 r_1_2_4 >= 2
- s_1_4 - s_1_2 - 1000 r_1_2_4 >= -1001
t_1_4 - t_1_2 + 1000.000000 u_1_2_4 - 0.555236 s_1_2  + 0.555236 s_1_7  + 2000.000000 r_1_2_4 > 7.819200
s_2_4 + s_2_2 + 1000 r_2_2_4 >= 2
- s_2_4 - s_2_2 - 1000 r_2_2_4 >= -1001
t_2_4 - t_2_2 + 1000.000000 u_2_2_4 - 0.471800 s_2_2  + 0.471800 s_2_7  + 2000.000000 r_2_2_4 > 7.085461
s_1_4 + s_1_3 + 1000 r_1_3_4 >= 2
- s_1_4 - s_1_3 - 1000 r_1_3_4 >= -1001
t_1_4 - t_1_3 + 1000.000000 u_1_3_4 - 1.110473 s_1_3  + 0.555236 s_1_8  + 0.555236 s_1_7  + 2000.000000 r_1_3_4 > 0.500422
s_2_4 + s_2_3 + 1000 r_2_3_4 >= 2
- s_2_4 - s_2_3 - 1000 r_2_3_4 >= -1001
t_2_4 - t_2_3 + 1000.000000 u_2_3_4 - 0.943601 s_2_3  + 0.471800 s_2_8  + 0.471800 s_2_7  + 2000.000000 r_2_3_4 > 1.665944
s_1_4 + s_1_5 + 1000 r_1_4_5 >= 2
- s_1_4 - s_1_5 - 1000 r_1_4_5 >= -1001
t_1_4 - t_1_5 - 1000.000000 u_1_4_5 - 0.555236 s_1_5  + 0.555236 s_1_8  + 2000.000000 r_1_4_5 > -996.262711
s_2_4 + s_2_5 + 1000 r_2_4_5 >= 2
- s_2_4 - s_2_5 - 1000 r_2_4_5 >= -1001
t_2_4 - t_2_5 - 1000.000000 u_2_4_5 - 0.471800 s_2_5  + 0.471800 s_2_8  + 2000.000000 r_2_4_5 > -996.243252
t_1_6 - t_1_4 - 1000.555236 s_1_4  + 0.555236 s_1_7  > -999.178667
t_1_6 - t_2_4 - 1000.471800 s_2_4  + 0.471800 s_2_7  > -997.417544
t_2_6 - t_1_4 - 1000.555236 s_1_4  + 0.555236 s_1_7  > -999.178667
t_2_6 - t_2_4 - 1000.471800 s_2_4  + 0.471800 s_2_7  > -997.417544
t_1_4 - t_1_7 - 1000.000000 s_1_7  > -992.014100
t_1_4 - t_2_7 - 1000.000000 s_2_7  > -995.372336
t_2_4 - t_1_7 - 1000.000000 s_1_7  > -992.014100
t_2_4 - t_2_7 - 1000.000000 s_2_7  > -995.372336
s_1_4 + s_1_8 + 1000 r_1_4_8 >= 2
- s_1_4 - s_1_8 - 1000 r_1_4_8 >= -1001
t_1_4 - t_1_8 - 1000.000000 u_1_4_8 - 0.000000 s_1_8  + 2000.000000 r_1_4_8 > -988.283100
s_2_4 + s_2_8 + 1000 r_2_4_8 >= 2
- s_2_4 - s_2_8 - 1000 r_2_4_8 >= -1001
t_2_4 - t_2_8 - 1000.000000 u_2_4_8 - 0.000000 s_2_8  + 2000.000000 r_2_4_8 > -994.087325
s_1_5 + s_1_1 + 1000 r_1_1_5 >= 2
- s_1_5 - s_1_1 - 1000 r_1_1_5 >= -1001
t_1_5 - t_1_1 + 1000.000000 u_1_1_5 - 1.110473 s_1_1  + 0.555236 s_1_8  + 0.555236 s_1_7  + 2000.000000 r_1_1_5 > 7.926200
s_2_5 + s_2_1 + 1000 r_2_1_5 >= 2
- s_2_5 - s_2_1 - 1000 r_2_1_5 >= -1001
t_2_5 - t_2_1 + 1000.000000 u_2_1_5 - 0.943601 s_2_1  + 0.471800 s_2_8  + 0.471800 s_2_7  + 2000.000000 r_2_1_5 > 7.145634
s_1_5 + s_1_2 + 1000 r_1_2_5 >= 2
- s_1_5 - s_1_2 - 1000 r_1_2_5 >= -1001
t_1_5 - t_1_2 + 1000.000000 u_1_2_5 - 0.555236 s_1_2  + 0.555236 s_1_7  + 2000.000000 r_1_2_5 > 7.819200
s_2_5 + s_2_2 + 1000 r_2_2_5 >= 2
- s_2_5 - s_2_2 - 1000 r_2_2_5 >= -1001
t_2_5 - t_2_2 + 1000.000000 u_2_2_5 - 0.471800 s_2_2  + 0.471800 s_2_7  + 2000.000000 r_2_2_5 > 7.085461
s_1_5 + s_1_3 + 1000 r_1_3_5 >= 2
- s_1_5 - s_1_3 - 1000 r_1_3_5 >= -1001
t_1_5 - t_1_3 + 1000.000000 u_1_3_5 - 1.110473 s_1_3  + 0.555236 s_1_8  + 0.555236 s_1_7  + 2000.000000 r_1_3_5 > 0.500422
s_2_5 + s_2_3 + 1000 r_2_3_5 >= 2
- s_2_5 - s_2_3 - 1000 r_2_3_5 >= -1001
t_2_5 - t_2_3 + 1000.000000 u_2_3_5 - 0.943601 s_2_3  + 0.471800 s_2_8  + 0.471800 s_2_7  + 2000.000000 r_2_3_5 > 1.665944
s_1_5 + s_1_4 + 1000 r_1_4_5 >= 2
- s_1_5 - s_1_4 - 1000 r_1_4_5 >= -1001
t_1_5 - t_1_4 + 1000.000000 u_1_4_5 - 0.555236 s_1_4  + 0.555236 s_1_7  + 2000.000000 r_1_4_5 > 0.821333
s_2_5 + s_2_4 + 1000 r_2_4_5 >= 2
- s_2_5 - s_2_4 - 1000 r_2_4_5 >= -1001
t_2_5 - t_2_4 + 1000.000000 u_2_4_5 - 0.471800 s_2_4  + 0.471800 s_2_7  + 2000.000000 r_2_4_5 > 2.582456
t_1_6 - t_1_5 - 1000.555236 s_1_5  + 0.555236 s_1_8  > -996.262711
t_1_6 - t_2_5 - 1000.471800 s_2_5  + 0.471800 s_2_8  > -996.243252
t_2_6 - t_1_5 - 1000.555236 s_1_5  + 0.555236 s_1_8  > -996.262711
t_2_6 - t_2_5 - 1000.471800 s_2_5  + 0.471800 s_2_8  > -996.243252
s_1_5 + s_1_7 + 1000 r_1_5_7 >= 2
- s_1_5 - s_1_7 - 1000 r_1_5_7 >= -1001
t_1_5 - t_1_7 - 1000.000000 u_1_5_7 - 0.000000 s_1_7  + 2000.000000 r_1_5_7 > -992.014100
s_2_5 + s_2_7 + 1000 r_2_5_7 >= 2
- s_2_5 - s_2_7 - 1000 r_2_5_7 >= -1001
t_2_5 - t_2_7 - 1000.000000 u_2_5_7 - 0.000000 s_2_7  + 2000.000000 r_2_5_7 > -995.372336
t_1_5 - t_1_8 - 1000.000000 s_1_8  > -988.283100
t_1_5 - t_2_8 - 1000.000000 s_2_8  > -994.087325
t_2_5 - t_1_8 - 1000.000000 s_1_8  > -988.283100
t_2_5 - t_2_8 - 1000.000000 s_2_8  > -994.087325
t_1_6 - t_1_7 - 1000.000000 s_1_7  > -992.014100
t_1_6 - t_2_7 - 1000.000000 s_2_7  > -995.372336
t_2_6 - t_1_7 - 1000.000000 s_1_7  > -992.014100
t_2_6 - t_2_7 - 1000.000000 s_2_7  > -995.372336
s_1_7 + s_1_5 + 1000 r_1_5_7 >= 2
- s_1_7 - s_1_5 - 1000 r_1_5_7 >= -1001
t_1_7 - t_1_5 + 1000.000000 u_1_5_7 - 0.555236 s_1_5  + 0.555236 s_1_8  + 2000.000000 r_1_5_7 > 3.737289
s_2_7 + s_2_5 + 1000 r_2_5_7 >= 2
- s_2_7 - s_2_5 - 1000 r_2_5_7 >= -1001
t_2_7 - t_2_5 + 1000.000000 u_2_5_7 - 0.471800 s_2_5  + 0.471800 s_2_8  + 2000.000000 r_2_5_7 > 3.756748
s_1_7 + s_1_8 + 1000 r_1_7_8 >= 2
- s_1_7 - s_1_8 - 1000 r_1_7_8 >= -1001
t_1_7 - t_1_8 - 1000.000000 u_1_7_8 - 0.000000 s_1_8  + 2000.000000 r_1_7_8 > -988.283100
s_2_7 + s_2_8 + 1000 r_2_7_8 >= 2
- s_2_7 - s_2_8 - 1000 r_2_7_8 >= -1001
t_2_7 - t_2_8 - 1000.000000 u_2_7_8 - 0.000000 s_2_8  + 2000.000000 r_2_7_8 > -994.087325
s_1_8 + s_1_2 + 1000 r_1_2_8 >= 2
- s_1_8 - s_1_2 - 1000 r_1_2_8 >= -1001
t_1_8 - t_1_2 + 1000.000000 u_1_2_8 - 0.555236 s_1_2  + 0.555236 s_1_7  + 2000.000000 r_1_2_8 > 7.819200
s_2_8 + s_2_2 + 1000 r_2_2_8 >= 2
- s_2_8 - s_2_2 - 1000 r_2_2_8 >= -1001
t_2_8 - t_2_2 + 1000.000000 u_2_2_8 - 0.471800 s_2_2  + 0.471800 s_2_7  + 2000.000000 r_2_2_8 > 7.085461
s_1_8 + s_1_4 + 1000 r_1_4_8 >= 2
- s_1_8 - s_1_4 - 1000 r_1_4_8 >= -1001
t_1_8 - t_1_4 + 1000.000000 u_1_4_8 - 0.555236 s_1_4  + 0.555236 s_1_7  + 2000.000000 r_1_4_8 > 0.821333
s_2_8 + s_2_4 + 1000 r_2_4_8 >= 2
- s_2_8 - s_2_4 - 1000 r_2_4_8 >= -1001
t_2_8 - t_2_4 + 1000.000000 u_2_4_8 - 0.471800 s_2_4  + 0.471800 s_2_7  + 2000.000000 r_2_4_8 > 2.582456
s_1_8 + s_1_7 + 1000 r_1_7_8 >= 2
- s_1_8 - s_1_7 - 1000 r_1_7_8 >= -1001
t_1_8 - t_1_7 + 1000.000000 u_1_7_8 - 0.000000 s_1_7  + 2000.000000 r_1_7_8 > 7.985900
s_2_8 + s_2_7 + 1000 r_2_7_8 >= 2
- s_2_8 - s_2_7 - 1000 r_2_7_8 >= -1001
t_2_8 - t_2_7 + 1000.000000 u_2_7_8 - 0.000000 s_2_7  + 2000.000000 r_2_7_8 > 4.627664
Binary
s_1_1
s_2_1
s_1_2
s_2_2
s_1_3
s_2_3
s_1_4
s_2_4
s_1_5
s_2_5
s_1_6
s_2_6
s_1_7
s_2_7
s_1_8
s_2_8
u_1_1_2
r_1_1_2
u_2_1_2
r_2_1_2
u_1_1_3
r_1_1_3
u_2_1_3
r_2_1_3
u_1_1_4
r_1_1_4
u_2_1_4
r_2_1_4
u_1_1_5
r_1_1_5
u_2_1_5
r_2_1_5
u_1_2_3
r_1_2_3
u_2_2_3
r_2_2_3
u_1_2_4
r_1_2_4
u_2_2_4
r_2_2_4
u_1_2_5
r_1_2_5
u_2_2_5
r_2_2_5
u_1_2_8
r_1_2_8
u_2_2_8
r_2_2_8
u_1_3_4
r_1_3_4
u_2_3_4
r_2_3_4
u_1_3_5
r_1_3_5
u_2_3_5
r_2_3_5
u_1_4_5
r_1_4_5
u_2_4_5
r_2_4_5
u_1_4_8
r_1_4_8
u_2_4_8
r_2_4_8
u_1_5_7
r_1_5_7
u_2_5_7
r_2_5_7
u_1_7_8
r_1_7_8
u_2_7_8
r_2_7_8

End
